c input_v4/binary/cnf_noALO_v4/10x10_120.cnf
c p 1320
c cnf 8752
s SATISFIABLE
c process-time: 0.00 seconds
-----
c input_v4/binary/cnf_noALO_v4/10x10_121.cnf
c p 1320
c cnf 8568
s SATISFIABLE
c process-time: 0.00 seconds
-----
c input_v4/binary/cnf_noALO_v4/10x10_122.cnf
c p 1320
c cnf 8623
s SATISFIABLE
c process-time: 0.00 seconds
-----
c input_v4/binary/cnf_noALO_v4/10x10_123.cnf
c p 1412
c cnf 9388
s SATISFIABLE
c process-time: 0.00 seconds
-----
c input_v4/binary/cnf_noALO_v4/10x10_124.cnf
c p 1320
c cnf 8586
s SATISFIABLE
c process-time: 0.01 seconds
-----
c input_v4/binary/cnf_noALO_v4/10x10_130.cnf
c p 1320
c cnf 8457
s SATISFIABLE
c process-time: 0.00 seconds
-----
c input_v4/binary/cnf_noALO_v4/10x10_131.cnf
c p 1052
c cnf 6575
s SATISFIABLE
c process-time: 0.00 seconds
-----
c input_v4/binary/cnf_noALO_v4/10x10_132.cnf
c p 1228
c cnf 8023
s SATISFIABLE
c process-time: 0.01 seconds
-----
c input_v4/binary/cnf_noALO_v4/10x10_133.cnf
c p 1412
c cnf 9511
s SATISFIABLE
c process-time: 0.00 seconds
-----
c input_v4/binary/cnf_noALO_v4/10x10_134.cnf
c p 1052
c cnf 6604
s SATISFIABLE
c process-time: 0.00 seconds
-----
c input_v4/binary/cnf_noALO_v4/10x10_135.cnf
c p 1228
c cnf 7990
s SATISFIABLE
c process-time: 0.00 seconds
-----
c input_v4/binary/cnf_noALO_v4/10x10_136.cnf
c p 1320
c cnf 8660
s SATISFIABLE
c process-time: 0.00 seconds
-----
c input_v4/binary/cnf_noALO_v4/10x10_137.cnf
c p 1320
c cnf 8660
s SATISFIABLE
c process-time: 0.00 seconds
-----
c input_v4/binary/cnf_noALO_v4/10x10_138.cnf
c p 1412
c cnf 9429
s SATISFIABLE
c process-time: 0.00 seconds
-----
c input_v4/binary/cnf_noALO_v4/10x10_139.cnf
c p 1228
c cnf 7908
s SATISFIABLE
c process-time: 0.01 seconds
-----
c input_v4/binary/cnf_noALO_v4/10x10_140.cnf
c p 1412
c cnf 9306
s SATISFIABLE
c process-time: 0.00 seconds
-----
c input_v4/binary/cnf_noALO_v4/10x10_141.cnf
c p 1320
c cnf 8733
s SATISFIABLE
c process-time: 0.01 seconds
-----
c input_v4/binary/cnf_noALO_v4/10x10_142.cnf
c p 1320
c cnf 8678
s SATISFIABLE
c process-time: 0.01 seconds
-----
c input_v4/binary/cnf_noALO_v4/10x10_143.cnf
c p 1228
c cnf 7891
s SATISFIABLE
c process-time: 0.00 seconds
-----
c input_v4/binary/cnf_noALO_v4/10x10_144.cnf
c p 1412
c cnf 9143
s SATISFIABLE
c process-time: 0.00 seconds
-----
c input_v4/binary/cnf_noALO_v4/10x10_145.cnf
c p 1412
c cnf 9265
s SATISFIABLE
c process-time: 0.00 seconds
-----
c input_v4/binary/cnf_noALO_v4/10x15_387.cnf
c p 2020
c cnf 14057
s SATISFIABLE
c process-time: 0.05 seconds
-----
c input_v4/binary/cnf_noALO_v4/10x15_388.cnf
c p 1878
c cnf 13113
s SATISFIABLE
c process-time: 0.24 seconds
-----
c input_v4/binary/cnf_noALO_v4/10x15_389.cnf
c p 1602
c cnf 10597
s SATISFIABLE
c process-time: 0.27 seconds
-----
c input_v4/binary/cnf_noALO_v4/10x15_390.cnf
c p 2020
c cnf 14242
s SATISFIABLE
c process-time: 0.19 seconds
-----
c input_v4/binary/cnf_noALO_v4/10x15_396.cnf
c p 1602
c cnf 10612
s SATISFIABLE
c process-time: 0.21 seconds
-----
c input_v4/binary/cnf_noALO_v4/10x15_397.cnf
c p 1878
c cnf 12931
s SATISFIABLE
c process-time: 0.03 seconds
-----
c input_v4/binary/cnf_noALO_v4/10x15_398.cnf
c p 1602
c cnf 10583
s SATISFIABLE
c process-time: 1s 1.19 seconds
-----
c input_v4/binary/cnf_noALO_v4/10x15_399.cnf
c p 1878
c cnf 12947
s SATISFIABLE
c process-time: 0.02 seconds
-----
c input_v4/binary/cnf_noALO_v4/10x15_400.cnf
c p 1602
c cnf 10612
s SATISFIABLE
c process-time: 0.38 seconds
-----
c input_v4/binary/cnf_noALO_v4/10x18_186.cnf
c p 2956
c cnf 21834
s SATISFIABLE
c process-time: 0.09 seconds
-----
c input_v4/binary/cnf_noALO_v4/10x18_187.cnf
c p 2440
c cnf 17620
s SATISFIABLE
c process-time: 4s 3.91 seconds
-----
c input_v4/binary/cnf_noALO_v4/10x18_198.cnf
c p 3472
c cnf 26061
s SATISFIABLE
c process-time: 0.03 seconds
-----
c input_v4/binary/cnf_noALO_v4/10x18_199.cnf
c p 2956
c cnf 21980
s SATISFIABLE
c process-time: 0.03 seconds
-----
c input_v4/binary/cnf_noALO_v4/10x18_200.cnf
c p 2784
c cnf 20462
s SATISFIABLE
c process-time: 1s 0.50 seconds
-----
c input_v4/binary/cnf_noALO_v4/10x18_208.cnf
c p 3128
c cnf 23682
s SATISFIABLE
c process-time: 0.01 seconds
-----
c input_v4/binary/cnf_noALO_v4/10x18_209.cnf
c p 2784
c cnf 20776
s SATISFIABLE
c process-time: 0.02 seconds
-----
c input_v4/binary/cnf_noALO_v4/10x18_414.cnf
c p 3790
c cnf 29540
s SATISFIABLE
c process-time: 0.02 seconds
-----
c input_v4/binary/cnf_noALO_v4/10x18_415.cnf
c p 3472
c cnf 25818
s SATISFIABLE
c process-time: 0.01 seconds
-----
c input_v4/binary/cnf_noALO_v4/10x18_416.cnf
c p 2440
c cnf 17435
s SATISFIABLE
c process-time: 0.05 seconds
-----
c input_v4/binary/cnf_noALO_v4/10x18_417.cnf
c p 2784
c cnf 20418
s SATISFIABLE
c process-time: 0.41 seconds
-----
c input_v4/binary/cnf_noALO_v4/11x11_120.cnf
c p 1840
c cnf 12632
s SATISFIABLE
c process-time: 0.00 seconds
-----
c input_v4/binary/cnf_noALO_v4/11x11_121.cnf
c p 1501
c cnf 10015
s SATISFIABLE
c process-time: 0.00 seconds
-----
c input_v4/binary/cnf_noALO_v4/11x11_122.cnf
c p 1283
c cnf 8309
s SATISFIABLE
c process-time: 0.00 seconds
-----
c input_v4/binary/cnf_noALO_v4/11x11_123.cnf
c p 1840
c cnf 12633
s SATISFIABLE
c process-time: 0.01 seconds
-----
c input_v4/binary/cnf_noALO_v4/11x11_124.cnf
c p 1840
c cnf 12588
s SATISFIABLE
c process-time: 0.00 seconds
-----
c input_v4/binary/cnf_noALO_v4/11x11_130.cnf
c p 1614
c cnf 10946
s SATISFIABLE
c process-time: 0.00 seconds
-----
c input_v4/binary/cnf_noALO_v4/11x11_131.cnf
c p 1840
c cnf 12543
s SATISFIABLE
c process-time: 0.01 seconds
-----
c input_v4/binary/cnf_noALO_v4/11x11_132.cnf
c p 1727
c cnf 11882
s SATISFIABLE
c process-time: 0.05 seconds
-----
c input_v4/binary/cnf_noALO_v4/11x11_133.cnf
c p 1614
c cnf 10965
s SATISFIABLE
c process-time: 0.00 seconds
-----
c input_v4/binary/cnf_noALO_v4/11x11_134.cnf
c p 1840
c cnf 12633
s SATISFIABLE
c process-time: 0.00 seconds
-----
c input_v4/binary/cnf_noALO_v4/11x11_135.cnf
c p 1840
c cnf 12498
s SATISFIABLE
c process-time: 0.01 seconds
-----
c input_v4/binary/cnf_noALO_v4/11x11_136.cnf
c p 1283
c cnf 8237
s SATISFIABLE
c process-time: 0.00 seconds
-----
c input_v4/binary/cnf_noALO_v4/11x11_137.cnf
c p 1840
c cnf 12834
s SATISFIABLE
c process-time: 0.01 seconds
-----
c input_v4/binary/cnf_noALO_v4/11x11_138.cnf
c p 1840
c cnf 12633
s SATISFIABLE
c process-time: 0.00 seconds
-----
c input_v4/binary/cnf_noALO_v4/11x11_139.cnf
c p 1501
c cnf 10015
s SATISFIABLE
c process-time: 0.01 seconds
-----
c input_v4/binary/cnf_noALO_v4/11x11_140.cnf
c p 1840
c cnf 12812
s SATISFIABLE
c process-time: 0.00 seconds
-----
c input_v4/binary/cnf_noALO_v4/11x11_141.cnf
c p 1501
c cnf 10031
s SATISFIABLE
c process-time: 0.00 seconds
-----
c input_v4/binary/cnf_noALO_v4/11x11_142.cnf
c p 1614
c cnf 10891
s SATISFIABLE
c process-time: 0.00 seconds
-----
c input_v4/binary/cnf_noALO_v4/11x11_143.cnf
c p 1501
c cnf 10130
s SATISFIABLE
c process-time: 0.02 seconds
-----
c input_v4/binary/cnf_noALO_v4/11x11_144.cnf
c p 1614
c cnf 10891
s SATISFIABLE
c process-time: 0.02 seconds
-----
c input_v4/binary/cnf_noALO_v4/11x11_145.cnf
c p 1614
c cnf 10983
s SATISFIABLE
c process-time: 0.00 seconds
-----
c input_v4/binary/cnf_noALO_v4/12x12_120.cnf
c p 2480
c cnf 17844
s SATISFIABLE
c process-time: 0.01 seconds
-----
c input_v4/binary/cnf_noALO_v4/12x12_121.cnf
c p 1936
c cnf 13491
s SATISFIABLE
c process-time: 0.11 seconds
-----
c input_v4/binary/cnf_noALO_v4/12x12_122.cnf
c p 2344
c cnf 16903
s SATISFIABLE
c process-time: 0.01 seconds
-----
c input_v4/binary/cnf_noALO_v4/12x12_123.cnf
c p 2072
c cnf 14680
s SATISFIABLE
c process-time: 0.00 seconds
-----
c input_v4/binary/cnf_noALO_v4/12x12_124.cnf
c p 2344
c cnf 16830
s SATISFIABLE
c process-time: 0.01 seconds
-----
c input_v4/binary/cnf_noALO_v4/12x12_130.cnf
c p 2344
c cnf 16829
s SATISFIABLE
c process-time: 0.01 seconds
-----
c input_v4/binary/cnf_noALO_v4/12x12_131.cnf
c p 1936
c cnf 13583
s SATISFIABLE
c process-time: 0.05 seconds
-----
c input_v4/binary/cnf_noALO_v4/12x12_132.cnf
c p 2344
c cnf 16658
s SATISFIABLE
c process-time: 0.01 seconds
-----
c input_v4/binary/cnf_noALO_v4/12x12_133.cnf
c p 2344
c cnf 16536
s SATISFIABLE
c process-time: 0.01 seconds
-----
c input_v4/binary/cnf_noALO_v4/12x12_134.cnf
c p 2208
c cnf 15977
s SATISFIABLE
c process-time: 0.01 seconds
-----
c input_v4/binary/cnf_noALO_v4/12x12_135.cnf
c p 2072
c cnf 14619
s SATISFIABLE
c process-time: 0.01 seconds
-----
c input_v4/binary/cnf_noALO_v4/12x12_136.cnf
c p 2208
c cnf 15752
s SATISFIABLE
c process-time: 0.01 seconds
-----
c input_v4/binary/cnf_noALO_v4/12x12_137.cnf
c p 2072
c cnf 14701
s SATISFIABLE
c process-time: 0.01 seconds
-----
c input_v4/binary/cnf_noALO_v4/12x12_138.cnf
c p 2072
c cnf 14701
s SATISFIABLE
c process-time: 0.01 seconds
-----
c input_v4/binary/cnf_noALO_v4/12x12_139.cnf
c p 2208
c cnf 15730
s SATISFIABLE
c process-time: 0.03 seconds
-----
c input_v4/binary/cnf_noALO_v4/12x12_140.cnf
c p 2072
c cnf 14558
s SATISFIABLE
c process-time: 0.01 seconds
-----
c input_v4/binary/cnf_noALO_v4/12x12_141.cnf
c p 2072
c cnf 14762
s SATISFIABLE
c process-time: 0.00 seconds
-----
c input_v4/binary/cnf_noALO_v4/12x12_142.cnf
c p 1800
c cnf 12388
s SATISFIABLE
c process-time: 0.01 seconds
-----
c input_v4/binary/cnf_noALO_v4/12x12_143.cnf
c p 2480
c cnf 17711
s SATISFIABLE
c process-time: 0.01 seconds
-----
c input_v4/binary/cnf_noALO_v4/12x12_144.cnf
c p 1936
c cnf 13583
s SATISFIABLE
c process-time: 0.01 seconds
-----
c input_v4/binary/cnf_noALO_v4/12x12_145.cnf
c p 2072
c cnf 14640
s SATISFIABLE
c process-time: 0.02 seconds
-----
c input_v4/binary/cnf_noALO_v4/12x15_39.cnf
c p 3300
c cnf 24739
s SATISFIABLE
c process-time: 0.01 seconds
-----
c input_v4/binary/cnf_noALO_v4/12x15_43.cnf
c p 2956
c cnf 22011
s SATISFIABLE
c process-time: 0.06 seconds
-----
c input_v4/binary/cnf_noALO_v4/12x15_45.cnf
c p 2440
c cnf 17515
s SATISFIABLE
c process-time: 0.21 seconds
-----
c input_v4/binary/cnf_noALO_v4/12x15_46.cnf
c p 2612
c cnf 19066
s SATISFIABLE
c process-time: 0.03 seconds
-----
c input_v4/binary/cnf_noALO_v4/12x23_210.cnf
c p 7764
c cnf 66421
s SATISFIABLE
c process-time: 0.03 seconds
-----
c input_v4/binary/cnf_noALO_v4/13x13_120.cnf
c p 2769
c cnf 20595
s SATISFIABLE
c process-time: 0.01 seconds
-----
c input_v4/binary/cnf_noALO_v4/13x13_121.cnf
c p 2608
c cnf 19048
s SATISFIABLE
c process-time: 0.01 seconds
-----
c input_v4/binary/cnf_noALO_v4/13x13_122.cnf
c p 2286
c cnf 16368
s SATISFIABLE
c process-time: 1s 0.61 seconds
-----
c input_v4/binary/cnf_noALO_v4/13x13_123.cnf
c p 2930
c cnf 21714
s SATISFIABLE
c process-time: 0.01 seconds
-----
c input_v4/binary/cnf_noALO_v4/13x13_124.cnf
c p 2769
c cnf 20448
s SATISFIABLE
c process-time: 0.07 seconds
-----
c input_v4/binary/cnf_noALO_v4/13x13_130.cnf
c p 2769
c cnf 20521
s SATISFIABLE
c process-time: 0.08 seconds
-----
c input_v4/binary/cnf_noALO_v4/13x13_131.cnf
c p 2608
c cnf 19228
s SATISFIABLE
c process-time: 0.02 seconds
-----
c input_v4/binary/cnf_noALO_v4/13x13_132.cnf
c p 2930
c cnf 21688
s SATISFIABLE
c process-time: 0.06 seconds
-----
c input_v4/binary/cnf_noALO_v4/13x13_133.cnf
c p 2608
c cnf 19138
s SATISFIABLE
c process-time: 0.29 seconds
-----
c input_v4/binary/cnf_noALO_v4/13x13_134.cnf
c p 2447
c cnf 17723
s SATISFIABLE
c process-time: 2s 2.30 seconds
-----
c input_v4/binary/cnf_noALO_v4/13x13_135.cnf
c p 2608
c cnf 19026
s SATISFIABLE
c process-time: 0.15 seconds
-----
c input_v4/binary/cnf_noALO_v4/13x13_136.cnf
c p 2769
c cnf 20375
s SATISFIABLE
c process-time: 0.21 seconds
-----
c input_v4/binary/cnf_noALO_v4/13x13_137.cnf
c p 2769
c cnf 20375
s SATISFIABLE
c process-time: 0.01 seconds
-----
c input_v4/binary/cnf_noALO_v4/13x13_138.cnf
c p 2930
c cnf 21635
s SATISFIABLE
c process-time: 0.01 seconds
-----
c input_v4/binary/cnf_noALO_v4/13x13_139.cnf
c p 3091
c cnf 22936
s SATISFIABLE
c process-time: 0.05 seconds
-----
c input_v4/binary/cnf_noALO_v4/13x13_140.cnf
c p 2608
c cnf 19475
s SATISFIABLE
c process-time: 0.01 seconds
-----
c input_v4/binary/cnf_noALO_v4/13x13_141.cnf
c p 2447
c cnf 17928
s SATISFIABLE
c process-time: 0.01 seconds
-----
c input_v4/binary/cnf_noALO_v4/13x13_142.cnf
c p 2447
c cnf 17641
s SATISFIABLE
c process-time: 0.29 seconds
-----
c input_v4/binary/cnf_noALO_v4/13x13_143.cnf
c p 2447
c cnf 17723
s SATISFIABLE
c process-time: 0.14 seconds
-----
c input_v4/binary/cnf_noALO_v4/13x13_144.cnf
c p 3091
c cnf 23107
s SATISFIABLE
c process-time: 0.01 seconds
-----
c input_v4/binary/cnf_noALO_v4/13x13_145.cnf
c p 2930
c cnf 21741
s SATISFIABLE
c process-time: 0.01 seconds
-----
c input_v4/binary/cnf_noALO_v4/14x14_120.cnf
c p 3416
c cnf 26000
s SATISFIABLE
c process-time: 0.15 seconds
-----
c input_v4/binary/cnf_noALO_v4/14x14_121.cnf
c p 3604
c cnf 27727
s SATISFIABLE
c process-time: 0.02 seconds
-----
c input_v4/binary/cnf_noALO_v4/14x14_122.cnf
c p 3604
c cnf 27698
s SATISFIABLE
c process-time: 0.06 seconds
-----
c input_v4/binary/cnf_noALO_v4/14x14_123.cnf
c p 3228
c cnf 24379
s SATISFIABLE
c process-time: 0.14 seconds
-----
c input_v4/binary/cnf_noALO_v4/14x14_124.cnf
c p 3416
c cnf 25973
s SATISFIABLE
c process-time: 0.11 seconds
-----
c input_v4/binary/cnf_noALO_v4/14x14_130.cnf
c p 3228
c cnf 24647
s SATISFIABLE
c process-time: 0.01 seconds
-----
c input_v4/binary/cnf_noALO_v4/14x14_131.cnf
c p 3604
c cnf 27727
s SATISFIABLE
c process-time: 0.01 seconds
-----
c input_v4/binary/cnf_noALO_v4/14x14_132.cnf
c p 3792
c cnf 29286
s SATISFIABLE
c process-time: 0.01 seconds
-----
c input_v4/binary/cnf_noALO_v4/14x14_133.cnf
c p 3792
c cnf 28981
s SATISFIABLE
c process-time: 0.11 seconds
-----
c input_v4/binary/cnf_noALO_v4/14x14_134.cnf
c p 3604
c cnf 27641
s SATISFIABLE
c process-time: 2s 1.59 seconds
-----
c input_v4/binary/cnf_noALO_v4/14x14_135.cnf
c p 3040
c cnf 22991
s SATISFIABLE
c process-time: 0.04 seconds
-----
c input_v4/binary/cnf_noALO_v4/14x14_136.cnf
c p 3040
c cnf 22946
s SATISFIABLE
c process-time: 0.07 seconds
-----
c input_v4/binary/cnf_noALO_v4/14x14_137.cnf
c p 3604
c cnf 27556
s SATISFIABLE
c process-time: 0.01 seconds
-----
c input_v4/binary/cnf_noALO_v4/14x14_138.cnf
c p 3604
c cnf 27926
s SATISFIABLE
c process-time: 0.07 seconds
-----
c input_v4/binary/cnf_noALO_v4/14x14_139.cnf
c p 3416
c cnf 26264
s SATISFIABLE
c process-time: 0.09 seconds
-----
c input_v4/binary/cnf_noALO_v4/14x14_140.cnf
c p 3792
c cnf 29255
s SATISFIABLE
c process-time: 0.05 seconds
-----
c input_v4/binary/cnf_noALO_v4/14x14_141.cnf
c p 3792
c cnf 28951
s SATISFIABLE
c process-time: 0.36 seconds
-----
c input_v4/binary/cnf_noALO_v4/14x14_142.cnf
c p 3604
c cnf 27784
s SATISFIABLE
c process-time: 0.06 seconds
-----
c input_v4/binary/cnf_noALO_v4/14x14_143.cnf
c p 3604
c cnf 27471
s SATISFIABLE
c process-time: 0.15 seconds
-----
c input_v4/binary/cnf_noALO_v4/14x14_144.cnf
c p 3040
c cnf 22946
s SATISFIABLE
c process-time: 0.07 seconds
-----
c input_v4/binary/cnf_noALO_v4/14x14_145.cnf
c p 3792
c cnf 29224
s SATISFIABLE
c process-time: 0.06 seconds
-----
c input_v4/binary/cnf_noALO_v4/14x24_105.cnf
c p 8852
c cnf 78488
s SATISFIABLE
c process-time: 12s 11.96 seconds
-----
c input_v4/binary/cnf_noALO_v4/14x24_110.cnf
c p 8200
c cnf 72274
s SATISFIABLE
c process-time: 2s 2.21 seconds
-----
c input_v4/binary/cnf_noALO_v4/14x24_113.cnf
c p 9504
c cnf 84565
s SATISFIABLE
c process-time: 1s 1.39 seconds
-----
c input_v4/binary/cnf_noALO_v4/14x24_117.cnf
c p 7874
c cnf 69189
s SATISFIABLE
c process-time: 7s 7.38 seconds
-----
c input_v4/binary/cnf_noALO_v4/14x24_129.cnf
c p 8200
c cnf 72389
s SATISFIABLE
c process-time: 19s 18.75 seconds
-----
c input_v4/binary/cnf_noALO_v4/14x24_139.cnf
c p 8200
c cnf 72505
s SATISFIABLE
c process-time: 2s 1.90 seconds
-----
c input_v4/binary/cnf_noALO_v4/14x24_147.cnf
c p 8526
c cnf 75222
s SATISFIABLE
c process-time: 6s 6.05 seconds
-----
c input_v4/binary/cnf_noALO_v4/14x24_148.cnf
c p 6264
c cnf 51613
s SATISFIABLE
c process-time: 4s 4.13 seconds
-----
c input_v4/binary/cnf_noALO_v4/14x24_157.cnf
c p 6592
c cnf 54794
s SATISFIABLE
c process-time: 1s 1.38 seconds
-----
c input_v4/binary/cnf_noALO_v4/14x24_158.cnf
c p 5608
c cnf 45032
s SATISFIABLE
c process-time: 1s 1.18 seconds
-----
c input_v4/binary/cnf_noALO_v4/14x24_169.cnf
c p 6264
c cnf 51471
s SATISFIABLE
c process-time: 4m 37s 276.81 seconds
-----
c input_v4/binary/cnf_noALO_v4/14x24_179.cnf
c p 5608
c cnf 45154
s SATISFIABLE
c process-time: 21s 20.67 seconds
-----
c input_v4/binary/cnf_noALO_v4/14x24_188.cnf
c p 8852
c cnf 78870
s SATISFIABLE
c process-time: 2s 2.42 seconds
-----
c input_v4/binary/cnf_noALO_v4/14x24_189.cnf
c p 10156
c cnf 90012
s SATISFIABLE
c process-time: 1s 1.37 seconds
-----
c input_v4/binary/cnf_noALO_v4/14x24_190.cnf
c p 5608
c cnf 45081
s SATISFIABLE
c process-time: 1s 0.88 seconds
-----
c input_v4/binary/cnf_noALO_v4/14x24_199.cnf
c p 5280
c cnf 41877
s SATISFIABLE
c process-time: 7s 6.84 seconds
-----
c input_v4/binary/cnf_noALO_v4/14x24_200.cnf
c p 5936
c cnf 48294
s SATISFIABLE
c process-time: 2m 28s 147.54 seconds
-----
c input_v4/binary/cnf_noALO_v4/14x24_208.cnf
c p 8200
c cnf 72351
s SATISFIABLE
c process-time: 4s 3.56 seconds
-----
c input_v4/binary/cnf_noALO_v4/14x24_209.cnf
c p 5936
c cnf 48347
s SATISFIABLE
c process-time: 5s 5.08 seconds
-----
c input_v4/binary/cnf_noALO_v4/14x24_218.cnf
c p 8200
c cnf 72620
s SATISFIABLE
c process-time: 10s 10.47 seconds
-----
c input_v4/binary/cnf_noALO_v4/14x24_219.cnf
c p 6264
c cnf 51442
s SATISFIABLE
c process-time: 4s 4.27 seconds
-----
c input_v4/binary/cnf_noALO_v4/14x24_418.cnf
c p 7548
c cnf 66357
s SATISFIABLE
c process-time: 8s 7.87 seconds
-----
c input_v4/binary/cnf_noALO_v4/14x24_419.cnf
c p 9504
c cnf 84240
s SATISFIABLE
c process-time: 1s 1.31 seconds
-----
c input_v4/binary/cnf_noALO_v4/14x24_420.cnf
c p 5936
c cnf 48320
s SATISFIABLE
c process-time: 4m 36s 275.66 seconds
-----
c input_v4/binary/cnf_noALO_v4/15x15_120.cnf
c p 4372
c cnf 34659
s SATISFIABLE
c process-time: 0.29 seconds
-----
c input_v4/binary/cnf_noALO_v4/15x15_121.cnf
c p 3721
c cnf 28768
s SATISFIABLE
c process-time: 0.11 seconds
-----
c input_v4/binary/cnf_noALO_v4/15x15_122.cnf
c p 4155
c cnf 32565
s SATISFIABLE
c process-time: 0.11 seconds
-----
c input_v4/binary/cnf_noALO_v4/15x15_123.cnf
c p 4372
c cnf 34415
s SATISFIABLE
c process-time: 0.18 seconds
-----
c input_v4/binary/cnf_noALO_v4/15x15_124.cnf
c p 4372
c cnf 34385
s SATISFIABLE
c process-time: 2s 2.05 seconds
-----
c input_v4/binary/cnf_noALO_v4/15x15_130.cnf
c p 4155
c cnf 32593
s SATISFIABLE
c process-time: 0.05 seconds
-----
c input_v4/binary/cnf_noALO_v4/15x15_131.cnf
c p 4372
c cnf 34293
s SATISFIABLE
c process-time: 0.18 seconds
-----
c input_v4/binary/cnf_noALO_v4/15x15_132.cnf
c p 4372
c cnf 34415
s SATISFIABLE
c process-time: 0.02 seconds
-----
c input_v4/binary/cnf_noALO_v4/15x15_133.cnf
c p 4372
c cnf 34263
s SATISFIABLE
c process-time: 0.41 seconds
-----
c input_v4/binary/cnf_noALO_v4/15x15_134.cnf
c p 3938
c cnf 30701
s SATISFIABLE
c process-time: 0.14 seconds
-----
c input_v4/binary/cnf_noALO_v4/15x15_135.cnf
c p 4372
c cnf 34415
s SATISFIABLE
c process-time: 0.13 seconds
-----
c input_v4/binary/cnf_noALO_v4/15x15_136.cnf
c p 4372
c cnf 34567
s SATISFIABLE
c process-time: 0.08 seconds
-----
c input_v4/binary/cnf_noALO_v4/15x15_137.cnf
c p 4372
c cnf 34628
s SATISFIABLE
c process-time: 1s 0.59 seconds
-----
c input_v4/binary/cnf_noALO_v4/15x15_138.cnf
c p 4372
c cnf 34415
s SATISFIABLE
c process-time: 0.50 seconds
-----
c input_v4/binary/cnf_noALO_v4/15x15_139.cnf
c p 4155
c cnf 32508
s SATISFIABLE
c process-time: 0.06 seconds
-----
c input_v4/binary/cnf_noALO_v4/15x15_140.cnf
c p 4372
c cnf 34476
s SATISFIABLE
c process-time: 0.02 seconds
-----
c input_v4/binary/cnf_noALO_v4/15x15_141.cnf
c p 4372
c cnf 34476
s SATISFIABLE
c process-time: 1s 0.80 seconds
-----
c input_v4/binary/cnf_noALO_v4/15x15_142.cnf
c p 4372
c cnf 34324
s SATISFIABLE
c process-time: 0.27 seconds
-----
c input_v4/binary/cnf_noALO_v4/15x15_143.cnf
c p 4372
c cnf 34750
s SATISFIABLE
c process-time: 0.07 seconds
-----
c input_v4/binary/cnf_noALO_v4/15x15_144.cnf
c p 4372
c cnf 34568
s SATISFIABLE
c process-time: 1s 0.86 seconds
-----
c input_v4/binary/cnf_noALO_v4/15x15_145.cnf
c p 4155
c cnf 32735
s SATISFIABLE
c process-time: 0.03 seconds
-----
c input_v4/binary/cnf_noALO_v4/15x20_307.cnf
c p 4412
c cnf 34202
s SATISFIABLE
c process-time: 3m 47s 226.98 seconds
-----
c input_v4/binary/cnf_noALO_v4/15x20_308.cnf
c p 4704
c cnf 37071
s SATISFIABLE
c process-time: 9s 8.85 seconds
-----
c input_v4/binary/cnf_noALO_v4/15x20_309.cnf
c p 4412
c cnf 34366
c process-time: 15m 899.80 seconds
UNKNOWN
-----
c input_v4/binary/cnf_noALO_v4/15x20_310.cnf
c p 5580
c cnf 45351
s SATISFIABLE
c process-time: 16s 15.53 seconds
-----
c input_v4/binary/cnf_noALO_v4/15x20_317.cnf
c p 5580
c cnf 45180
s SATISFIABLE
c process-time: 5s 4.85 seconds
-----
c input_v4/binary/cnf_noALO_v4/15x20_318.cnf
c p 5580
c cnf 45237
s SATISFIABLE
c process-time: 10s 10.22 seconds
-----
c input_v4/binary/cnf_noALO_v4/15x20_319.cnf
c p 5288
c cnf 42476
s SATISFIABLE
c process-time: 6m 21s 380.62 seconds
-----
c input_v4/binary/cnf_noALO_v4/15x20_320.cnf
c p 5288
c cnf 42555
s SATISFIABLE
c process-time: 1m 2s 62.12 seconds
-----
c input_v4/binary/cnf_noALO_v4/17x17_100.cnf
c p 4528
c cnf 35583
s SATISFIABLE
c process-time: 2s 1.66 seconds
-----
c input_v4/binary/cnf_noALO_v4/17x17_104.cnf
c p 7025
c cnf 61079
s SATISFIABLE
c process-time: 2s 1.52 seconds
-----
c input_v4/binary/cnf_noALO_v4/17x17_109.cnf
c p 6746
c cnf 58224
s SATISFIABLE
c process-time: 1s 1.01 seconds
-----
c input_v4/binary/cnf_noALO_v4/17x17_112.cnf
c p 7304
c cnf 63306
s SATISFIABLE
c process-time: 0.46 seconds
-----
c input_v4/binary/cnf_noALO_v4/17x17_116.cnf
c p 6467
c cnf 55522
s SATISFIABLE
c process-time: 0.20 seconds
-----
c input_v4/binary/cnf_noALO_v4/17x17_120.cnf
c p 4809
c cnf 38165
s SATISFIABLE
c process-time: 7s 6.65 seconds
-----
c input_v4/binary/cnf_noALO_v4/17x17_128.cnf
c p 4809
c cnf 38459
s SATISFIABLE
c process-time: 0.33 seconds
-----
c input_v4/binary/cnf_noALO_v4/17x17_136.cnf
c p 6746
c cnf 58515
s SATISFIABLE
c process-time: 0.34 seconds
-----
c input_v4/binary/cnf_noALO_v4/17x17_138.cnf
c p 4528
c cnf 35493
s SATISFIABLE
c process-time: 1s 0.97 seconds
-----
c input_v4/binary/cnf_noALO_v4/17x17_165.cnf
c p 4809
c cnf 38165
s SATISFIABLE
c process-time: 2s 1.59 seconds
-----
c input_v4/binary/cnf_noALO_v4/17x17_166.cnf
c p 4528
c cnf 35493
s SATISFIABLE
c process-time: 22s 22.31 seconds
-----
c input_v4/binary/cnf_noALO_v4/17x17_167.cnf
c p 8978
c cnf 78504
s SATISFIABLE
c process-time: 0.04 seconds
-----
c input_v4/binary/cnf_noALO_v4/17x17_168.cnf
c p 9536
c cnf 82479
s SATISFIABLE
c process-time: 0.04 seconds
-----
c input_v4/binary/cnf_noALO_v4/17x17_175.cnf
c p 3966
c cnf 30146
s SATISFIABLE
c process-time: 0.02 seconds
-----
c input_v4/binary/cnf_noALO_v4/17x17_176.cnf
c p 3685
c cnf 27312
s SATISFIABLE
c process-time: 44s 43.89 seconds
-----
c input_v4/binary/cnf_noALO_v4/17x17_177.cnf
c p 7583
c cnf 66260
s SATISFIABLE
c process-time: 0.18 seconds
-----
c input_v4/binary/cnf_noALO_v4/17x17_178.cnf
c p 8420
c cnf 73983
s SATISFIABLE
c process-time: 0.07 seconds
-----
c input_v4/binary/cnf_noALO_v4/17x17_187.cnf
c p 4247
c cnf 32879
s SATISFIABLE
c process-time: 3s 2.73 seconds
-----
c input_v4/binary/cnf_noALO_v4/17x17_188.cnf
c p 4528
c cnf 35538
s SATISFIABLE
c process-time: 0.11 seconds
-----
c input_v4/binary/cnf_noALO_v4/17x17_197.cnf
c p 4528
c cnf 35583
s SATISFIABLE
c process-time: 3s 2.58 seconds
-----
c input_v4/binary/cnf_noALO_v4/17x17_198.cnf
c p 3966
c cnf 29980
s SATISFIABLE
c process-time: 0.29 seconds
-----
c input_v4/binary/cnf_noALO_v4/17x17_230.cnf
c p 2848
c cnf 19585
s SATISFIABLE
c process-time: 1s 0.62 seconds
-----
c input_v4/binary/cnf_noALO_v4/17x17_240.cnf
c p 3966
c cnf 30072
s SATISFIABLE
c process-time: 0.38 seconds
-----
c input_v4/binary/cnf_noALO_v4/17x17_250.cnf
c p 10875
c cnf 97663
s SATISFIABLE
c process-time: 0.08 seconds
-----
c input_v4/binary/cnf_noALO_v4/17x17_260.cnf
c p 10875
c cnf 98695
s SATISFIABLE
c process-time: 0.11 seconds
-----
c input_v4/binary/cnf_noALO_v4/17x17_270.cnf
c p 9536
c cnf 82705
s SATISFIABLE
c process-time: 0.19 seconds
-----
c input_v4/binary/cnf_noALO_v4/17x17_429.cnf
c p 6746
c cnf 58333
s SATISFIABLE
c process-time: 0.06 seconds
-----
c input_v4/binary/cnf_noALO_v4/17x17_439.cnf
c p 4528
c cnf 35628
s SATISFIABLE
c process-time: 8s 7.97 seconds
-----
c input_v4/binary/cnf_noALO_v4/17x17_449.cnf
c p 6188
c cnf 53071
s SATISFIABLE
c process-time: 0.43 seconds
-----
c input_v4/binary/cnf_noALO_v4/20x20_430.cnf
c p 12140
c cnf 112034
s SATISFIABLE
c process-time: 8s 7.69 seconds
-----
c input_v4/binary/cnf_noALO_v4/20x20_440.cnf
c p 6696
c cnf 54808
c process-time: 15m 899.74 seconds
UNKNOWN
-----
c input_v4/binary/cnf_noALO_v4/20x20_450.cnf
c p 7872
c cnf 66400
s SATISFIABLE
c process-time: 13m 49s 828.62 seconds
-----
c input_v4/binary/cnf_noALO_v4/20x36_106.cnf
c p 30516
c cnf 322546
c process-time: 15m 899.87 seconds
UNKNOWN
-----
c input_v4/binary/cnf_noALO_v4/20x36_114.cnf
c p 30516
c cnf 322909
s SATISFIABLE
c process-time: 9m 56s 596.39 seconds
-----
c input_v4/binary/cnf_noALO_v4/20x36_118.cnf
c p 25610
c cnf 254555
c process-time: 15m 899.76 seconds
UNKNOWN
-----
c input_v4/binary/cnf_noALO_v4/20x36_130.cnf
c p 25610
c cnf 254616
c process-time: 15m 899.66 seconds
UNKNOWN
-----
c input_v4/binary/cnf_noALO_v4/20x36_140.cnf
c p 25610
c cnf 254676
c process-time: 15m 899.78 seconds
UNKNOWN
-----
c input_v4/binary/cnf_noALO_v4/20x36_149.cnf
c p 23480
c cnf 231445
c process-time: 15m 899.85 seconds
UNKNOWN
-----
c input_v4/binary/cnf_noALO_v4/20x36_150.cnf
c p 19220
c cnf 185017
c process-time: 15m 899.86 seconds
UNKNOWN
-----
c input_v4/binary/cnf_noALO_v4/20x36_159.cnf
c p 25610
c cnf 254797
c process-time: 15m 899.79 seconds
UNKNOWN
-----
c input_v4/binary/cnf_noALO_v4/20x36_160.cnf
c p 19220
c cnf 185017
c process-time: 15m 899.88 seconds
UNKNOWN
-----
c input_v4/binary/cnf_noALO_v4/20x36_170.cnf
c p 27684
c cnf 291235
c process-time: 15m 899.81 seconds
UNKNOWN
-----
c input_v4/binary/cnf_noALO_v4/20x36_180.cnf
c p 19220
c cnf 185102
c process-time: 15m 899.82 seconds
UNKNOWN
-----
c input_v4/binary/cnf_noALO_v4/20x36_210.cnf
c p 27684
c cnf 291235
c process-time: 15m 899.76 seconds
UNKNOWN
-----
c input_v4/binary/cnf_noALO_v4/20x36_220.cnf
c p 30516
c cnf 321894
c process-time: 15m 899.85 seconds
UNKNOWN
-----
c input_v4/binary/cnf_noALO_v4/25x25_60.cnf
c p 18500
c cnf 178772
s SATISFIABLE
c process-time: 1m 10s 69.80 seconds
-----
c input_v4/binary/cnf_noALO_v4/25x25_66.cnf
c p 21575
c cnf 211161
s SATISFIABLE
c process-time: 4m 43s 283.33 seconds
-----
c input_v4/binary/cnf_noALO_v4/25x25_72.cnf
c p 27657
c cnf 287574
c process-time: 15m 899.75 seconds
UNKNOWN
-----
c input_v4/binary/cnf_noALO_v4/25x25_78.cnf
c p 22190
c cnf 217395
c process-time: 15m 899.83 seconds
UNKNOWN
-----
c input_v4/binary/cnf_noALO_v4/25x42_110.cnf
c p 70656
c cnf 780322
s SATISFIABLE
c process-time: 1m 26s 86.10 seconds
-----
c input_v4/binary/cnf_noALO_v4/35x48_190.cnf
c p 76800
c cnf 874148
c process-time: 15m 899.77 seconds
UNKNOWN
-----
c input_v4/binary/cnf_noALO_v4/6x6_120.cnf
c p 200
c cnf 914
s SATISFIABLE
c process-time: 0.00 seconds
-----
c input_v4/binary/cnf_noALO_v4/6x6_121.cnf
c p 288
c cnf 1358
s SATISFIABLE
c process-time: 0.00 seconds
-----
c input_v4/binary/cnf_noALO_v4/6x6_122.cnf
c p 258
c cnf 1186
s SATISFIABLE
c process-time: 0.00 seconds
-----
c input_v4/binary/cnf_noALO_v4/6x6_123.cnf
c p 258
c cnf 1253
s SATISFIABLE
c process-time: 0.00 seconds
-----
c input_v4/binary/cnf_noALO_v4/6x6_124.cnf
c p 258
c cnf 1177
s SATISFIABLE
c process-time: 0.00 seconds
-----
c input_v4/binary/cnf_noALO_v4/6x6_125.cnf
c p 258
c cnf 1203
s SATISFIABLE
c process-time: 0.00 seconds
-----
c input_v4/binary/cnf_noALO_v4/6x6_130.cnf
c p 200
c cnf 914
s SATISFIABLE
c process-time: 0.00 seconds
-----
c input_v4/binary/cnf_noALO_v4/6x6_131.cnf
c p 288
c cnf 1348
s SATISFIABLE
c process-time: 0.00 seconds
-----
c input_v4/binary/cnf_noALO_v4/6x6_132.cnf
c p 200
c cnf 901
s SATISFIABLE
c process-time: 0.00 seconds
-----
c input_v4/binary/cnf_noALO_v4/6x6_133.cnf
c p 288
c cnf 1317
s SATISFIABLE
c process-time: 0.00 seconds
-----
c input_v4/binary/cnf_noALO_v4/6x6_134.cnf
c p 288
c cnf 1338
s SATISFIABLE
c process-time: 0.00 seconds
-----
c input_v4/binary/cnf_noALO_v4/6x6_135.cnf
c p 200
c cnf 901
s SATISFIABLE
c process-time: 0.00 seconds
-----
c input_v4/binary/cnf_noALO_v4/6x6_136.cnf
c p 200
c cnf 939
s SATISFIABLE
c process-time: 0.00 seconds
-----
c input_v4/binary/cnf_noALO_v4/6x6_137.cnf
c p 258
c cnf 1244
s SATISFIABLE
c process-time: 0.00 seconds
-----
c input_v4/binary/cnf_noALO_v4/6x6_138.cnf
c p 258
c cnf 1228
s SATISFIABLE
c process-time: 0.00 seconds
-----
c input_v4/binary/cnf_noALO_v4/6x6_139.cnf
c p 258
c cnf 1186
s SATISFIABLE
c process-time: 0.00 seconds
-----
c input_v4/binary/cnf_noALO_v4/6x6_140.cnf
c p 318
c cnf 1436
s SATISFIABLE
c process-time: 0.00 seconds
-----
c input_v4/binary/cnf_noALO_v4/6x6_141.cnf
c p 200
c cnf 901
s SATISFIABLE
c process-time: 0.00 seconds
-----
c input_v4/binary/cnf_noALO_v4/6x6_142.cnf
c p 258
c cnf 1194
s SATISFIABLE
c process-time: 0.00 seconds
-----
c input_v4/binary/cnf_noALO_v4/6x6_143.cnf
c p 288
c cnf 1368
s SATISFIABLE
c process-time: 0.00 seconds
-----
c input_v4/binary/cnf_noALO_v4/6x6_144.cnf
c p 288
c cnf 1380
s SATISFIABLE
c process-time: 0.00 seconds
-----
c input_v4/binary/cnf_noALO_v4/6x6_145.cnf
c p 258
c cnf 1203
s SATISFIABLE
c process-time: 0.00 seconds
-----
c input_v4/binary/cnf_noALO_v4/7x7_120.cnf
c p 405
c cnf 1995
s SATISFIABLE
c process-time: 0.00 seconds
-----
c input_v4/binary/cnf_noALO_v4/7x7_121.cnf
c p 448
c cnf 2362
s SATISFIABLE
c process-time: 0.00 seconds
-----
c input_v4/binary/cnf_noALO_v4/7x7_122.cnf
c p 448
c cnf 2399
s SATISFIABLE
c process-time: 0.00 seconds
-----
c input_v4/binary/cnf_noALO_v4/7x7_123.cnf
c p 362
c cnf 1762
s SATISFIABLE
c process-time: 0.00 seconds
-----
c input_v4/binary/cnf_noALO_v4/7x7_124.cnf
c p 405
c cnf 2068
s SATISFIABLE
c process-time: 0.00 seconds
-----
c input_v4/binary/cnf_noALO_v4/7x7_130.cnf
c p 278
c cnf 1395
s SATISFIABLE
c process-time: 0.00 seconds
-----
c input_v4/binary/cnf_noALO_v4/7x7_131.cnf
c p 405
c cnf 2120
s SATISFIABLE
c process-time: 0.00 seconds
-----
c input_v4/binary/cnf_noALO_v4/7x7_132.cnf
c p 491
c cnf 2557
s SATISFIABLE
c process-time: 0.00 seconds
-----
c input_v4/binary/cnf_noALO_v4/7x7_133.cnf
c p 405
c cnf 2151
s SATISFIABLE
c process-time: 0.00 seconds
-----
c input_v4/binary/cnf_noALO_v4/7x7_134.cnf
c p 362
c cnf 1804
s SATISFIABLE
c process-time: 0.00 seconds
-----
c input_v4/binary/cnf_noALO_v4/7x7_135.cnf
c p 448
c cnf 2436
s SATISFIABLE
c process-time: 0.00 seconds
-----
c input_v4/binary/cnf_noALO_v4/7x7_136.cnf
c p 362
c cnf 1796
s SATISFIABLE
c process-time: 0.00 seconds
-----
c input_v4/binary/cnf_noALO_v4/7x7_137.cnf
c p 362
c cnf 1821
s SATISFIABLE
c process-time: 0.00 seconds
-----
c input_v4/binary/cnf_noALO_v4/7x7_138.cnf
c p 405
c cnf 2089
s SATISFIABLE
c process-time: 0.00 seconds
-----
c input_v4/binary/cnf_noALO_v4/7x7_139.cnf
c p 405
c cnf 2120
s SATISFIABLE
c process-time: 0.00 seconds
-----
c input_v4/binary/cnf_noALO_v4/7x7_140.cnf
c p 405
c cnf 2058
s SATISFIABLE
c process-time: 0.00 seconds
-----
c input_v4/binary/cnf_noALO_v4/7x7_141.cnf
c p 405
c cnf 2068
s SATISFIABLE
c process-time: 0.00 seconds
-----
c input_v4/binary/cnf_noALO_v4/7x7_142.cnf
c p 405
c cnf 2089
s SATISFIABLE
c process-time: 0.00 seconds
-----
c input_v4/binary/cnf_noALO_v4/7x7_143.cnf
c p 448
c cnf 2437
s SATISFIABLE
c process-time: 0.00 seconds
-----
c input_v4/binary/cnf_noALO_v4/7x7_144.cnf
c p 405
c cnf 2089
s SATISFIABLE
c process-time: 0.00 seconds
-----
c input_v4/binary/cnf_noALO_v4/7x7_145.cnf
c p 405
c cnf 2057
s SATISFIABLE
c process-time: 0.00 seconds
-----
c input_v4/binary/cnf_noALO_v4/8x8_120.cnf
c p 656
c cnf 3648
s SATISFIABLE
c process-time: 0.00 seconds
-----
c input_v4/binary/cnf_noALO_v4/8x8_121.cnf
c p 656
c cnf 3649
s SATISFIABLE
c process-time: 0.00 seconds
-----
c input_v4/binary/cnf_noALO_v4/8x8_122.cnf
c p 656
c cnf 3764
s SATISFIABLE
c process-time: 0.00 seconds
-----
c input_v4/binary/cnf_noALO_v4/8x8_123.cnf
c p 656
c cnf 3605
s SATISFIABLE
c process-time: 0.00 seconds
-----
c input_v4/binary/cnf_noALO_v4/8x8_124.cnf
c p 540
c cnf 3056
s SATISFIABLE
c process-time: 0.00 seconds
-----
c input_v4/binary/cnf_noALO_v4/8x8_130.cnf
c p 540
c cnf 2941
s SATISFIABLE
c process-time: 0.00 seconds
-----
c input_v4/binary/cnf_noALO_v4/8x8_131.cnf
c p 656
c cnf 3648
s SATISFIABLE
c process-time: 0.00 seconds
-----
c input_v4/binary/cnf_noALO_v4/8x8_132.cnf
c p 598
c cnf 3268
s SATISFIABLE
c process-time: 0.00 seconds
-----
c input_v4/binary/cnf_noALO_v4/8x8_133.cnf
c p 540
c cnf 2983
s SATISFIABLE
c process-time: 0.00 seconds
-----
c input_v4/binary/cnf_noALO_v4/8x8_134.cnf
c p 656
c cnf 3576
s SATISFIABLE
c process-time: 0.00 seconds
-----
c input_v4/binary/cnf_noALO_v4/8x8_135.cnf
c p 540
c cnf 2931
s SATISFIABLE
c process-time: 0.00 seconds
-----
c input_v4/binary/cnf_noALO_v4/8x8_136.cnf
c p 598
c cnf 3293
s SATISFIABLE
c process-time: 0.00 seconds
-----
c input_v4/binary/cnf_noALO_v4/8x8_137.cnf
c p 656
c cnf 3648
s SATISFIABLE
c process-time: 0.00 seconds
-----
c input_v4/binary/cnf_noALO_v4/8x8_138.cnf
c p 482
c cnf 2566
s SATISFIABLE
c process-time: 0.00 seconds
-----
c input_v4/binary/cnf_noALO_v4/8x8_139.cnf
c p 656
c cnf 3605
s SATISFIABLE
c process-time: 0.00 seconds
-----
c input_v4/binary/cnf_noALO_v4/8x8_140.cnf
c p 598
c cnf 3368
s SATISFIABLE
c process-time: 0.00 seconds
-----
c input_v4/binary/cnf_noALO_v4/8x8_141.cnf
c p 656
c cnf 3749
s SATISFIABLE
c process-time: 0.00 seconds
-----
c input_v4/binary/cnf_noALO_v4/8x8_142.cnf
c p 598
c cnf 3330
s SATISFIABLE
c process-time: 0.00 seconds
-----
c input_v4/binary/cnf_noALO_v4/8x8_143.cnf
c p 760
c cnf 4472
s SATISFIABLE
c process-time: 0.00 seconds
-----
c input_v4/binary/cnf_noALO_v4/8x8_144.cnf
c p 598
c cnf 3380
s SATISFIABLE
c process-time: 0.00 seconds
-----
c input_v4/binary/cnf_noALO_v4/8x8_145.cnf
c p 656
c cnf 3735
s SATISFIABLE
c process-time: 0.00 seconds
-----
c input_v4/binary/cnf_noALO_v4/9x9_120.cnf
c p 768
c cnf 4515
s SATISFIABLE
c process-time: 0.00 seconds
-----
c input_v4/binary/cnf_noALO_v4/9x9_121.cnf
c p 981
c cnf 6065
s SATISFIABLE
c process-time: 0.00 seconds
-----
c input_v4/binary/cnf_noALO_v4/9x9_122.cnf
c p 981
c cnf 6016
s SATISFIABLE
c process-time: 0.00 seconds
-----
c input_v4/binary/cnf_noALO_v4/9x9_123.cnf
c p 843
c cnf 4944
s SATISFIABLE
c process-time: 0.00 seconds
-----
c input_v4/binary/cnf_noALO_v4/9x9_124.cnf
c p 1054
c cnf 6614
s SATISFIABLE
c process-time: 0.00 seconds
-----
c input_v4/binary/cnf_noALO_v4/9x9_130.cnf
c p 981
c cnf 6049
s SATISFIABLE
c process-time: 0.00 seconds
-----
c input_v4/binary/cnf_noALO_v4/9x9_131.cnf
c p 1054
c cnf 6503
s SATISFIABLE
c process-time: 0.00 seconds
-----
c input_v4/binary/cnf_noALO_v4/9x9_132.cnf
c p 1054
c cnf 6558
s SATISFIABLE
c process-time: 0.00 seconds
-----
c input_v4/binary/cnf_noALO_v4/9x9_133.cnf
c p 981
c cnf 6115
s SATISFIABLE
c process-time: 0.00 seconds
-----
c input_v4/binary/cnf_noALO_v4/9x9_134.cnf
c p 768
c cnf 4590
s SATISFIABLE
c process-time: 0.00 seconds
-----
c input_v4/binary/cnf_noALO_v4/9x9_135.cnf
c p 843
c cnf 5045
s SATISFIABLE
c process-time: 0.00 seconds
-----
c input_v4/binary/cnf_noALO_v4/9x9_136.cnf
c p 843
c cnf 5060
s SATISFIABLE
c process-time: 0.00 seconds
-----
c input_v4/binary/cnf_noALO_v4/9x9_137.cnf
c p 768
c cnf 4490
s SATISFIABLE
c process-time: 0.00 seconds
-----
c input_v4/binary/cnf_noALO_v4/9x9_138.cnf
c p 843
c cnf 5074
s SATISFIABLE
c process-time: 0.00 seconds
-----
c input_v4/binary/cnf_noALO_v4/9x9_139.cnf
c p 981
c cnf 5950
s SATISFIABLE
c process-time: 0.00 seconds
-----
c input_v4/binary/cnf_noALO_v4/9x9_140.cnf
c p 981
c cnf 6197
s SATISFIABLE
c process-time: 0.00 seconds
-----
c input_v4/binary/cnf_noALO_v4/9x9_141.cnf
c p 768
c cnf 4502
s SATISFIABLE
c process-time: 0.00 seconds
-----
c input_v4/binary/cnf_noALO_v4/9x9_142.cnf
c p 1054
c cnf 6577
s SATISFIABLE
c process-time: 0.00 seconds
-----
c input_v4/binary/cnf_noALO_v4/9x9_143.cnf
c p 843
c cnf 5089
s SATISFIABLE
c process-time: 0.00 seconds
-----
c input_v4/binary/cnf_noALO_v4/9x9_144.cnf
c p 981
c cnf 6065
s SATISFIABLE
c process-time: 0.00 seconds
-----
c input_v4/binary/cnf_noALO_v4/9x9_145.cnf
c p 843
c cnf 5002
s SATISFIABLE
c process-time: 0.00 seconds
-----
UNKNOWN
-----

